\ENCODING=ISO-8859-1
\Problem name: IloCplex

Minimize
 obj: c(0)#0 + c(1)#6 + c(2)#12 + c(3)#18 + c(4)#24
Subject To
 c1:  v(0)(0)#1 + v(0)(1)#2 + v(0)(2)#3 + v(0)(3)#4 + v(0)(4)#5 + v(1)(0)#7
      + v(1)(1)#8 + v(1)(2)#9 + v(1)(3)#10 + v(1)(4)#11 + v(2)(0)#13
      + v(2)(1)#14 + v(2)(2)#15 + v(2)(3)#16 + v(2)(4)#17  = 1
 c2:  v(3)(0)#19 + v(3)(1)#20 + v(3)(2)#21 + v(3)(3)#22 + v(3)(4)#23
      + v(4)(0)#25 + v(4)(1)#26 + v(4)(2)#27 + v(4)(3)#28 + v(4)(4)#29  = 1
 c3:  v(0)(0)#1 + v(1)(0)#7 <= 1
 c4:  v(0)(1)#2 + v(1)(1)#8 <= 1
 c5:  v(0)(2)#3 + v(1)(2)#9 <= 1
 c6:  v(0)(3)#4 + v(1)(3)#10 <= 1
 c7:  v(0)(4)#5 + v(1)(4)#11 <= 1
 c8:  v(1)(0)#7 + v(2)(0)#13 <= 1
 c9:  v(1)(1)#8 + v(2)(1)#14 <= 1
 c10: v(1)(2)#9 + v(2)(2)#15 <= 1
 c11: v(1)(3)#10 + v(2)(3)#16 <= 1
 c12: v(1)(4)#11 + v(2)(4)#17 <= 1
 c13: v(2)(0)#13 + v(3)(0)#19 <= 1
 c14: v(2)(1)#14 + v(3)(1)#20 <= 1
 c15: v(2)(2)#15 + v(3)(2)#21 <= 1
 c16: v(2)(3)#16 + v(3)(3)#22 <= 1
 c17: v(2)(4)#17 + v(3)(4)#23 <= 1
 c18: v(3)(0)#19 + v(4)(0)#25 <= 1
 c19: v(3)(1)#20 + v(4)(1)#26 <= 1
 c20: v(3)(2)#21 + v(4)(2)#27 <= 1
 c21: v(3)(3)#22 + v(4)(3)#28 <= 1
 c22: v(3)(4)#23 + v(4)(4)#29 <= 1
 c23: v(0)(0)#1 + v(4)(0)#25 <= 1
 c24: v(0)(1)#2 + v(4)(1)#26 <= 1
 c25: v(0)(2)#3 + v(4)(2)#27 <= 1
 c26: v(0)(3)#4 + v(4)(3)#28 <= 1
 c27: v(0)(4)#5 + v(4)(4)#29 <= 1
 c28: v(0)(0)#1 + v(3)(0)#19 <= 1
 c29: v(0)(1)#2 + v(3)(1)#20 <= 1
 c30: v(0)(2)#3 + v(3)(2)#21 <= 1
 c31: v(0)(3)#4 + v(3)(3)#22 <= 1
 c32: v(0)(4)#5 + v(3)(4)#23 <= 1
 c33: v(1)(0)#7 + v(3)(0)#19 <= 1
 c34: v(1)(1)#8 + v(3)(1)#20 <= 1
 c35: v(1)(2)#9 + v(3)(2)#21 <= 1
 c36: v(1)(3)#10 + v(3)(3)#22 <= 1
 c37: v(1)(4)#11 + v(3)(4)#23 <= 1
 c38: v(0)(0)#1 + v(2)(0)#13 <= 1
 c39: v(0)(1)#2 + v(2)(1)#14 <= 1
 c40: v(0)(2)#3 + v(2)(2)#15 <= 1
 c41: v(0)(3)#4 + v(2)(3)#16 <= 1
 c42: v(0)(4)#5 + v(2)(4)#17 <= 1
 c43: v(1)(0)#7 + v(4)(0)#25 <= 1
 c44: v(1)(1)#8 + v(4)(1)#26 <= 1
 c45: v(1)(2)#9 + v(4)(2)#27 <= 1
 c46: v(1)(3)#10 + v(4)(3)#28 <= 1
 c47: v(1)(4)#11 + v(4)(4)#29 <= 1
 c48: v(2)(0)#13 + v(4)(0)#25 <= 1
 c49: v(2)(1)#14 + v(4)(1)#26 <= 1
 c50: v(2)(2)#15 + v(4)(2)#27 <= 1
 c51: v(2)(3)#16 + v(4)(3)#28 <= 1
 c52: v(2)(4)#17 + v(4)(4)#29 <= 1
 c53: - c(0)#0 + v(0)(0)#1 <= 0
 c54: - c(0)#0 + v(0)(1)#2 <= 0
 c55: - c(0)#0 + v(0)(2)#3 <= 0
 c56: - c(0)#0 + v(0)(3)#4 <= 0
 c57: - c(0)#0 + v(0)(4)#5 <= 0
 c58: - c(1)#6 + v(1)(0)#7 <= 0
 c59: - c(1)#6 + v(1)(1)#8 <= 0
 c60: - c(1)#6 + v(1)(2)#9 <= 0
 c61: - c(1)#6 + v(1)(3)#10 <= 0
 c62: - c(1)#6 + v(1)(4)#11 <= 0
 c63: - c(2)#12 + v(2)(0)#13 <= 0
 c64: - c(2)#12 + v(2)(1)#14 <= 0
 c65: - c(2)#12 + v(2)(2)#15 <= 0
 c66: - c(2)#12 + v(2)(3)#16 <= 0
 c67: - c(2)#12 + v(2)(4)#17 <= 0
 c68: - c(3)#18 + v(3)(0)#19 <= 0
 c69: - c(3)#18 + v(3)(1)#20 <= 0
 c70: - c(3)#18 + v(3)(2)#21 <= 0
 c71: - c(3)#18 + v(3)(3)#22 <= 0
 c72: - c(3)#18 + v(3)(4)#23 <= 0
 c73: - c(4)#24 + v(4)(0)#25 <= 0
 c74: - c(4)#24 + v(4)(1)#26 <= 0
 c75: - c(4)#24 + v(4)(2)#27 <= 0
 c76: - c(4)#24 + v(4)(3)#28 <= 0
 c77: - c(4)#24 + v(4)(4)#29 <= 0
Bounds
 0 <= c(0)#0 <= 1
 0 <= v(0)(0)#1 <= 1
 0 <= v(0)(1)#2 <= 1
 0 <= v(0)(2)#3 <= 1
 0 <= v(0)(3)#4 <= 1
 0 <= v(0)(4)#5 <= 1
 0 <= c(1)#6 <= 1
 0 <= v(1)(0)#7 <= 1
 0 <= v(1)(1)#8 <= 1
 0 <= v(1)(2)#9 <= 1
 0 <= v(1)(3)#10 <= 1
 0 <= v(1)(4)#11 <= 1
 0 <= c(2)#12 <= 1
 0 <= v(2)(0)#13 <= 1
 0 <= v(2)(1)#14 <= 1
 0 <= v(2)(2)#15 <= 1
 0 <= v(2)(3)#16 <= 1
 0 <= v(2)(4)#17 <= 1
 0 <= c(3)#18 <= 1
 0 <= v(3)(0)#19 <= 1
 0 <= v(3)(1)#20 <= 1
 0 <= v(3)(2)#21 <= 1
 0 <= v(3)(3)#22 <= 1
 0 <= v(3)(4)#23 <= 1
 0 <= c(4)#24 <= 1
 0 <= v(4)(0)#25 <= 1
 0 <= v(4)(1)#26 <= 1
 0 <= v(4)(2)#27 <= 1
 0 <= v(4)(3)#28 <= 1
 0 <= v(4)(4)#29 <= 1
Binaries
 c(0)#0  v(0)(0)#1  v(0)(1)#2  v(0)(2)#3  v(0)(3)#4  v(0)(4)#5  c(1)#6 
 v(1)(0)#7  v(1)(1)#8  v(1)(2)#9  v(1)(3)#10  v(1)(4)#11  c(2)#12  v(2)(0)#13 
 v(2)(1)#14  v(2)(2)#15  v(2)(3)#16  v(2)(4)#17  c(3)#18  v(3)(0)#19 
 v(3)(1)#20  v(3)(2)#21  v(3)(3)#22  v(3)(4)#23  c(4)#24  v(4)(0)#25 
 v(4)(1)#26  v(4)(2)#27  v(4)(3)#28  v(4)(4)#29 
End
